70
1 0 2
2 0 2
2 1 6
3 0 6
3 1 1
3 2 1
4 0 4
4 1 8
4 2 1
4 3 1
5 0 5
5 1 7
5 2 1
5 3 3
5 4 7
6 0 1
6 1 6
6 2 6
6 3 8
6 4 6
6 5 8
7 0 2
7 1 1
7 2 6
7 3 8
7 4 2
7 5 8
7 6 6
8 0 7
8 1 7
8 2 5
8 3 6
8 4 4
8 5 8
8 6 5
8 7 8
9 0 5
9 1 1
9 2 4
9 3 4
9 4 2
9 5 3
9 6 1
9 7 3
9 8 1
10 0 6
10 1 5
10 2 1
10 3 8
10 4 5
10 5 1
10 6 1
10 7 3
10 8 4
10 9 3
11 0 7
11 1 6
11 2 8
11 3 5
11 4 6
11 5 8
11 6 5
11 7 6
11 8 5
11 9 8
11 10 2
12 0 6
12 1 3
12 2 3
12 3 5
12 4 2
12 5 1
12 6 2
12 7 8
12 8 4
12 9 2
12 10 2
12 11 4
13 0 2
13 1 7
13 2 2
13 3 8
13 4 7
13 5 8
13 6 2
13 7 8
13 8 8
13 9 6
13 10 8
13 11 2
13 12 5
14 0 8
14 1 8
14 2 5
14 3 8
14 4 6
14 5 5
14 6 4
14 7 6
14 8 3
14 9 4
14 10 3
14 11 3
14 12 8
14 13 5
15 0 4
15 1 1
15 2 7
15 3 1
15 4 6
15 5 1
15 6 4
15 7 1
15 8 5
15 9 2
15 10 1
15 11 1
15 12 4
15 13 2
15 14 3
16 0 4
16 1 7
16 2 1
16 3 5
16 4 2
16 5 1
16 6 7
16 7 1
16 8 5
16 9 8
16 10 6
16 11 8
16 12 6
16 13 3
16 14 7
16 15 1
17 0 4
17 1 5
17 2 7
17 3 5
17 4 5
17 5 3
17 6 4
17 7 3
17 8 3
17 9 4
17 10 1
17 11 3
17 12 8
17 13 2
17 14 2
17 15 5
17 16 8
18 0 6
18 1 4
18 2 3
18 3 3
18 4 1
18 5 5
18 6 4
18 7 7
18 8 5
18 9 4
18 10 2
18 11 7
18 12 6
18 13 1
18 14 8
18 15 7
18 16 6
18 17 5
19 0 4
19 1 5
19 2 1
19 3 7
19 4 8
19 5 1
19 6 5
19 7 8
19 8 4
19 9 4
19 10 2
19 11 4
19 12 7
19 13 6
19 14 6
19 15 3
19 16 2
19 17 2
19 18 2
20 0 3
20 1 5
20 2 5
20 3 1
20 4 3
20 5 8
20 6 4
20 7 8
20 8 6
20 9 3
20 10 3
20 11 4
20 12 5
20 13 6
20 14 2
20 15 5
20 16 5
20 17 7
20 18 1
20 19 5
21 0 1
21 1 2
21 2 6
21 3 8
21 4 1
21 5 1
21 6 6
21 7 1
21 8 2
21 9 4
21 10 6
21 11 2
21 12 4
21 13 8
21 14 2
21 15 2
21 16 5
21 17 5
21 18 8
21 19 6
21 20 2
22 0 1
22 1 5
22 2 5
22 3 2
22 4 8
22 5 1
22 6 4
22 7 8
22 8 4
22 9 4
22 10 5
22 11 8
22 12 7
22 13 2
22 14 7
22 15 7
22 16 2
22 17 8
22 18 1
22 19 5
22 20 3
22 21 2
23 0 8
23 1 2
23 2 8
23 3 7
23 4 7
23 5 6
23 6 6
23 7 6
23 8 6
23 9 8
23 10 3
23 11 5
23 12 7
23 13 3
23 14 2
23 15 3
23 16 5
23 17 2
23 18 7
23 19 4
23 20 6
23 21 4
23 22 8
24 0 3
24 1 2
24 2 6
24 3 4
24 4 7
24 5 8
24 6 3
24 7 1
24 8 1
24 9 5
24 10 4
24 11 6
24 12 1
24 13 2
24 14 3
24 15 5
24 16 8
24 17 7
24 18 8
24 19 4
24 20 2
24 21 7
24 22 5
24 23 7
25 0 8
25 1 8
25 2 8
25 3 5
25 4 7
25 5 5
25 6 1
25 7 8
25 8 4
25 9 7
25 10 6
25 11 5
25 12 5
25 13 4
25 14 7
25 15 1
25 16 5
25 17 7
25 18 5
25 19 3
25 20 1
25 21 8
25 22 2
25 23 8
25 24 5
26 0 3
26 1 4
26 2 6
26 3 3
26 4 4
26 5 2
26 6 2
26 7 8
26 8 7
26 9 8
26 10 3
26 11 2
26 12 2
26 13 7
26 14 7
26 15 8
26 16 4
26 17 1
26 18 2
26 19 2
26 20 8
26 21 7
26 22 1
26 23 7
26 24 6
26 25 5
27 0 3
27 1 5
27 2 3
27 3 8
27 4 7
27 5 3
27 6 4
27 7 2
27 8 8
27 9 8
27 10 4
27 11 3
27 12 5
27 13 8
27 14 2
27 15 4
27 16 3
27 17 4
27 18 5
27 19 7
27 20 5
27 21 4
27 22 5
27 23 3
27 24 5
27 25 3
27 26 1
28 0 3
28 1 3
28 2 5
28 3 4
28 4 2
28 5 4
28 6 6
28 7 6
28 8 4
28 9 8
28 10 8
28 11 3
28 12 1
28 13 8
28 14 8
28 15 4
28 16 2
28 17 1
28 18 4
28 19 6
28 20 6
28 21 1
28 22 1
28 23 8
28 24 7
28 25 3
28 26 8
28 27 1
29 0 8
29 1 8
29 2 2
29 3 5
29 4 5
29 5 4
29 6 5
29 7 7
29 8 4
29 9 1
29 10 3
29 11 8
29 12 1
29 13 1
29 14 7
29 15 7
29 16 4
29 17 5
29 18 3
29 19 3
29 20 6
29 21 3
29 22 6
29 23 4
29 24 4
29 25 6
29 26 8
29 27 5
29 28 2
30 0 4
30 1 8
30 2 7
30 3 8
30 4 8
30 5 7
30 6 3
30 7 5
30 8 3
30 9 1
30 10 7
30 11 4
30 12 2
30 13 4
30 14 2
30 15 4
30 16 5
30 17 1
30 18 5
30 19 2
30 20 8
30 21 1
30 22 6
30 23 4
30 24 1
30 25 8
30 26 2
30 27 5
30 28 2
30 29 6
31 0 1
31 1 1
31 2 5
31 3 6
31 4 6
31 5 1
31 6 2
31 7 7
31 8 1
31 9 8
31 10 4
31 11 4
31 12 7
31 13 2
31 14 6
31 15 7
31 16 7
31 17 7
31 18 3
31 19 6
31 20 1
31 21 7
31 22 4
31 23 3
31 24 2
31 25 1
31 26 5
31 27 7
31 28 3
31 29 8
31 30 3
32 0 1
32 1 6
32 2 7
32 3 2
32 4 3
32 5 3
32 6 4
32 7 7
32 8 4
32 9 6
32 10 2
32 11 4
32 12 7
32 13 2
32 14 7
32 15 3
32 16 8
32 17 7
32 18 5
32 19 6
32 20 5
32 21 3
32 22 7
32 23 2
32 24 5
32 25 7
32 26 8
32 27 1
32 28 1
32 29 4
32 30 8
32 31 8
33 0 5
33 1 8
33 2 4
33 3 2
33 4 8
33 5 1
33 6 2
33 7 7
33 8 5
33 9 2
33 10 1
33 11 1
33 12 5
33 13 3
33 14 5
33 15 2
33 16 8
33 17 4
33 18 4
33 19 6
33 20 8
33 21 3
33 22 8
33 23 6
33 24 8
33 25 4
33 26 8
33 27 2
33 28 2
33 29 2
33 30 3
33 31 3
33 32 3
34 0 6
34 1 7
34 2 5
34 3 8
34 4 2
34 5 7
34 6 6
34 7 8
34 8 4
34 9 1
34 10 1
34 11 4
34 12 1
34 13 6
34 14 6
34 15 3
34 16 8
34 17 1
34 18 6
34 19 4
34 20 1
34 21 5
34 22 6
34 23 5
34 24 1
34 25 3
34 26 8
34 27 1
34 28 4
34 29 4
34 30 7
34 31 2
34 32 4
34 33 6
35 0 3
35 1 6
35 2 1
35 3 3
35 4 8
35 5 4
35 6 2
35 7 5
35 8 8
35 9 7
35 10 2
35 11 2
35 12 3
35 13 5
35 14 1
35 15 5
35 16 8
35 17 6
35 18 5
35 19 1
35 20 5
35 21 6
35 22 8
35 23 3
35 24 2
35 25 6
35 26 5
35 27 2
35 28 5
35 29 3
35 30 8
35 31 7
35 32 3
35 33 4
35 34 3
36 0 5
36 1 2
36 2 7
36 3 6
36 4 8
36 5 6
36 6 4
36 7 3
36 8 5
36 9 6
36 10 5
36 11 1
36 12 1
36 13 7
36 14 5
36 15 2
36 16 6
36 17 2
36 18 3
36 19 4
36 20 6
36 21 4
36 22 7
36 23 5
36 24 7
36 25 4
36 26 7
36 27 8
36 28 4
36 29 3
36 30 7
36 31 7
36 32 2
36 33 3
36 34 7
36 35 4
37 0 8
37 1 4
37 2 8
37 3 5
37 4 1
37 5 8
37 6 7
37 7 1
37 8 7
37 9 4
37 10 5
37 11 7
37 12 1
37 13 3
37 14 2
37 15 6
37 16 5
37 17 3
37 18 3
37 19 1
37 20 4
37 21 8
37 22 1
37 23 2
37 24 1
37 25 2
37 26 5
37 27 2
37 28 5
37 29 5
37 30 8
37 31 6
37 32 2
37 33 2
37 34 1
37 35 8
37 36 7
38 0 1
38 1 2
38 2 6
38 3 4
38 4 3
38 5 6
38 6 8
38 7 7
38 8 6
38 9 6
38 10 8
38 11 4
38 12 2
38 13 4
38 14 6
38 15 2
38 16 6
38 17 4
38 18 5
38 19 7
38 20 5
38 21 7
38 22 4
38 23 5
38 24 5
38 25 7
38 26 3
38 27 3
38 28 3
38 29 5
38 30 4
38 31 8
38 32 4
38 33 6
38 34 8
38 35 6
38 36 5
38 37 7
39 0 6
39 1 4
39 2 3
39 3 3
39 4 8
39 5 4
39 6 4
39 7 1
39 8 2
39 9 8
39 10 5
39 11 3
39 12 6
39 13 4
39 14 7
39 15 4
39 16 8
39 17 1
39 18 8
39 19 5
39 20 7
39 21 1
39 22 1
39 23 3
39 24 3
39 25 8
39 26 3
39 27 1
39 28 5
39 29 8
39 30 4
39 31 5
39 32 3
39 33 6
39 34 1
39 35 5
39 36 6
39 37 6
39 38 7
40 0 2
40 1 4
40 2 8
40 3 6
40 4 3
40 5 4
40 6 5
40 7 3
40 8 1
40 9 5
40 10 6
40 11 1
40 12 7
40 13 2
40 14 4
40 15 1
40 16 7
40 17 7
40 18 4
40 19 6
40 20 5
40 21 2
40 22 3
40 23 2
40 24 8
40 25 8
40 26 3
40 27 7
40 28 3
40 29 8
40 30 1
40 31 6
40 32 1
40 33 5
40 34 1
40 35 5
40 36 6
40 37 4
40 38 1
40 39 7
41 0 2
41 1 5
41 2 3
41 3 3
41 4 6
41 5 1
41 6 8
41 7 6
41 8 2
41 9 1
41 10 8
41 11 8
41 12 2
41 13 4
41 14 8
41 15 2
41 16 7
41 17 3
41 18 1
41 19 4
41 20 8
41 21 2
41 22 3
41 23 5
41 24 5
41 25 5
41 26 3
41 27 4
41 28 3
41 29 6
41 30 6
41 31 8
41 32 4
41 33 4
41 34 1
41 35 1
41 36 1
41 37 1
41 38 6
41 39 7
41 40 2
42 0 3
42 1 4
42 2 1
42 3 8
42 4 6
42 5 6
42 6 2
42 7 8
42 8 2
42 9 4
42 10 3
42 11 5
42 12 6
42 13 2
42 14 8
42 15 5
42 16 7
42 17 4
42 18 4
42 19 6
42 20 5
42 21 7
42 22 1
42 23 4
42 24 4
42 25 5
42 26 4
42 27 7
42 28 6
42 29 5
42 30 6
42 31 3
42 32 2
42 33 6
42 34 2
42 35 8
42 36 2
42 37 6
42 38 4
42 39 2
42 40 8
42 41 7
43 0 7
43 1 5
43 2 1
43 3 4
43 4 5
43 5 4
43 6 6
43 7 4
43 8 4
43 9 2
43 10 7
43 11 2
43 12 7
43 13 5
43 14 8
43 15 7
43 16 5
43 17 8
43 18 4
43 19 2
43 20 3
43 21 5
43 22 4
43 23 5
43 24 2
43 25 3
43 26 1
43 27 6
43 28 7
43 29 3
43 30 8
43 31 2
43 32 3
43 33 7
43 34 7
43 35 7
43 36 3
43 37 6
43 38 5
43 39 6
43 40 6
43 41 6
43 42 7
44 0 2
44 1 1
44 2 4
44 3 5
44 4 7
44 5 5
44 6 6
44 7 5
44 8 7
44 9 4
44 10 4
44 11 6
44 12 1
44 13 3
44 14 1
44 15 5
44 16 3
44 17 3
44 18 1
44 19 1
44 20 7
44 21 5
44 22 8
44 23 2
44 24 8
44 25 1
44 26 5
44 27 8
44 28 8
44 29 3
44 30 7
44 31 5
44 32 2
44 33 2
44 34 6
44 35 6
44 36 1
44 37 3
44 38 5
44 39 3
44 40 7
44 41 7
44 42 6
44 43 3
45 0 5
45 1 2
45 2 4
45 3 3
45 4 6
45 5 4
45 6 1
45 7 5
45 8 3
45 9 4
45 10 8
45 11 5
45 12 5
45 13 8
45 14 8
45 15 5
45 16 7
45 17 3
45 18 8
45 19 8
45 20 1
45 21 6
45 22 4
45 23 8
45 24 7
45 25 5
45 26 7
45 27 8
45 28 4
45 29 2
45 30 7
45 31 3
45 32 7
45 33 7
45 34 5
45 35 8
45 36 7
45 37 3
45 38 1
45 39 4
45 40 3
45 41 5
45 42 1
45 43 5
45 44 4
46 0 1
46 1 3
46 2 7
46 3 3
46 4 7
46 5 6
46 6 4
46 7 5
46 8 4
46 9 2
46 10 8
46 11 6
46 12 1
46 13 4
46 14 2
46 15 8
46 16 5
46 17 4
46 18 8
46 19 2
46 20 7
46 21 3
46 22 2
46 23 3
46 24 1
46 25 4
46 26 4
46 27 4
46 28 2
46 29 3
46 30 2
46 31 1
46 32 7
46 33 5
46 34 5
46 35 8
46 36 1
46 37 7
46 38 3
46 39 8
46 40 4
46 41 2
46 42 8
46 43 3
46 44 1
46 45 2
47 0 7
47 1 6
47 2 4
47 3 6
47 4 5
47 5 7
47 6 6
47 7 6
47 8 1
47 9 5
47 10 3
47 11 7
47 12 5
47 13 5
47 14 4
47 15 2
47 16 5
47 17 1
47 18 3
47 19 4
47 20 4
47 21 7
47 22 7
47 23 4
47 24 6
47 25 5
47 26 6
47 27 4
47 28 6
47 29 4
47 30 2
47 31 7
47 32 6
47 33 6
47 34 7
47 35 2
47 36 1
47 37 8
47 38 8
47 39 6
47 40 7
47 41 4
47 42 3
47 43 4
47 44 5
47 45 6
47 46 3
48 0 3
48 1 2
48 2 8
48 3 1
48 4 2
48 5 1
48 6 5
48 7 2
48 8 1
48 9 3
48 10 7
48 11 2
48 12 1
48 13 6
48 14 8
48 15 5
48 16 3
48 17 2
48 18 8
48 19 4
48 20 1
48 21 5
48 22 5
48 23 1
48 24 2
48 25 4
48 26 1
48 27 2
48 28 4
48 29 1
48 30 6
48 31 3
48 32 8
48 33 7
48 34 8
48 35 6
48 36 3
48 37 3
48 38 3
48 39 4
48 40 2
48 41 4
48 42 3
48 43 4
48 44 2
48 45 2
48 46 8
48 47 8
49 0 1
49 1 4
49 2 7
49 3 1
49 4 3
49 5 2
49 6 4
49 7 1
49 8 8
49 9 4
49 10 4
49 11 6
49 12 2
49 13 3
49 14 7
49 15 6
49 16 7
49 17 3
49 18 5
49 19 3
49 20 3
49 21 1
49 22 4
49 23 1
49 24 8
49 25 2
49 26 3
49 27 5
49 28 3
49 29 7
49 30 1
49 31 3
49 32 8
49 33 8
49 34 6
49 35 3
49 36 8
49 37 6
49 38 3
49 39 1
49 40 7
49 41 1
49 42 6
49 43 1
49 44 6
49 45 3
49 46 3
49 47 6
49 48 7
50 0 7
50 1 1
50 2 5
50 3 8
50 4 6
50 5 4
50 6 2
50 7 5
50 8 6
50 9 2
50 10 8
50 11 3
50 12 8
50 13 6
50 14 4
50 15 4
50 16 1
50 17 6
50 18 1
50 19 8
50 20 6
50 21 5
50 22 1
50 23 2
50 24 1
50 25 6
50 26 4
50 27 4
50 28 5
50 29 2
50 30 7
50 31 6
50 32 6
50 33 3
50 34 3
50 35 5
50 36 3
50 37 4
50 38 3
50 39 1
50 40 8
50 41 4
50 42 3
50 43 7
50 44 7
50 45 8
50 46 4
50 47 8
50 48 8
50 49 5
51 0 4
51 1 7
51 2 3
51 3 3
51 4 5
51 5 6
51 6 7
51 7 4
51 8 5
51 9 5
51 10 6
51 11 7
51 12 7
51 13 1
51 14 6
51 15 5
51 16 5
51 17 8
51 18 4
51 19 6
51 20 3
51 21 4
51 22 2
51 23 2
51 24 6
51 25 8
51 26 6
51 27 8
51 28 5
51 29 5
51 30 8
51 31 5
51 32 3
51 33 1
51 34 6
51 35 6
51 36 3
51 37 7
51 38 2
51 39 8
51 40 4
51 41 5
51 42 4
51 43 6
51 44 7
51 45 3
51 46 2
51 47 6
51 48 3
51 49 5
51 50 5
52 0 5
52 1 4
52 2 4
52 3 4
52 4 8
52 5 7
52 6 1
52 7 7
52 8 7
52 9 7
52 10 8
52 11 2
52 12 3
52 13 8
52 14 3
52 15 5
52 16 5
52 17 6
52 18 7
52 19 5
52 20 1
52 21 2
52 22 5
52 23 5
52 24 7
52 25 5
52 26 8
52 27 4
52 28 2
52 29 1
52 30 3
52 31 4
52 32 1
52 33 5
52 34 8
52 35 7
52 36 7
52 37 5
52 38 3
52 39 8
52 40 1
52 41 8
52 42 5
52 43 7
52 44 2
52 45 6
52 46 5
52 47 1
52 48 4
52 49 5
52 50 5
52 51 1
53 0 4
53 1 5
53 2 8
53 3 4
53 4 7
53 5 4
53 6 2
53 7 5
53 8 7
53 9 1
53 10 3
53 11 6
53 12 3
53 13 6
53 14 3
53 15 3
53 16 8
53 17 1
53 18 3
53 19 3
53 20 5
53 21 2
53 22 6
53 23 5
53 24 1
53 25 6
53 26 6
53 27 4
53 28 6
53 29 1
53 30 4
53 31 4
53 32 2
53 33 2
53 34 7
53 35 8
53 36 2
53 37 1
53 38 8
53 39 5
53 40 8
53 41 1
53 42 7
53 43 6
53 44 4
53 45 8
53 46 1
53 47 7
53 48 4
53 49 2
53 50 8
53 51 6
53 52 7
54 0 1
54 1 1
54 2 7
54 3 1
54 4 2
54 5 7
54 6 4
54 7 4
54 8 8
54 9 8
54 10 4
54 11 4
54 12 1
54 13 6
54 14 5
54 15 8
54 16 7
54 17 2
54 18 1
54 19 6
54 20 6
54 21 5
54 22 6
54 23 2
54 24 6
54 25 5
54 26 3
54 27 3
54 28 6
54 29 7
54 30 7
54 31 1
54 32 2
54 33 1
54 34 7
54 35 7
54 36 1
54 37 3
54 38 3
54 39 4
54 40 6
54 41 8
54 42 6
54 43 3
54 44 4
54 45 4
54 46 7
54 47 6
54 48 4
54 49 8
54 50 5
54 51 3
54 52 8
54 53 6
55 0 3
55 1 4
55 2 4
55 3 5
55 4 6
55 5 2
55 6 6
55 7 6
55 8 2
55 9 5
55 10 3
55 11 2
55 12 5
55 13 2
55 14 1
55 15 5
55 16 3
55 17 3
55 18 2
55 19 8
55 20 5
55 21 7
55 22 2
55 23 5
55 24 3
55 25 7
55 26 8
55 27 2
55 28 7
55 29 6
55 30 4
55 31 3
55 32 3
55 33 1
55 34 1
55 35 2
55 36 5
55 37 2
55 38 2
55 39 7
55 40 3
55 41 2
55 42 7
55 43 7
55 44 6
55 45 2
55 46 8
55 47 8
55 48 1
55 49 3
55 50 1
55 51 8
55 52 4
55 53 4
55 54 5
56 0 7
56 1 4
56 2 3
56 3 8
56 4 8
56 5 4
56 6 3
56 7 4
56 8 7
56 9 1
56 10 4
56 11 3
56 12 2
56 13 5
56 14 7
56 15 5
56 16 2
56 17 3
56 18 5
56 19 6
56 20 5
56 21 4
56 22 4
56 23 2
56 24 8
56 25 7
56 26 3
56 27 4
56 28 3
56 29 3
56 30 3
56 31 8
56 32 3
56 33 3
56 34 6
56 35 7
56 36 8
56 37 5
56 38 5
56 39 1
56 40 4
56 41 6
56 42 1
56 43 1
56 44 7
56 45 5
56 46 5
56 47 3
56 48 1
56 49 5
56 50 2
56 51 6
56 52 6
56 53 1
56 54 3
56 55 2
57 0 4
57 1 4
57 2 2
57 3 8
57 4 8
57 5 2
57 6 7
57 7 3
57 8 6
57 9 3
57 10 1
57 11 6
57 12 3
57 13 8
57 14 1
57 15 4
57 16 6
57 17 4
57 18 3
57 19 7
57 20 5
57 21 5
57 22 6
57 23 8
57 24 7
57 25 7
57 26 6
57 27 3
57 28 5
57 29 8
57 30 2
57 31 2
57 32 1
57 33 8
57 34 3
57 35 8
57 36 3
57 37 5
57 38 3
57 39 1
57 40 3
57 41 7
57 42 5
57 43 6
57 44 5
57 45 7
57 46 4
57 47 7
57 48 1
57 49 5
57 50 3
57 51 5
57 52 4
57 53 1
57 54 5
57 55 7
57 56 4
58 0 6
58 1 7
58 2 3
58 3 5
58 4 5
58 5 2
58 6 8
58 7 4
58 8 8
58 9 4
58 10 1
58 11 8
58 12 2
58 13 1
58 14 5
58 15 4
58 16 4
58 17 2
58 18 1
58 19 5
58 20 4
58 21 4
58 22 6
58 23 2
58 24 3
58 25 1
58 26 7
58 27 1
58 28 4
58 29 2
58 30 2
58 31 5
58 32 8
58 33 4
58 34 6
58 35 7
58 36 1
58 37 6
58 38 3
58 39 7
58 40 4
58 41 5
58 42 7
58 43 1
58 44 8
58 45 4
58 46 7
58 47 6
58 48 4
58 49 1
58 50 6
58 51 2
58 52 8
58 53 7
58 54 1
58 55 5
58 56 1
58 57 5
59 0 1
59 1 2
59 2 3
59 3 4
59 4 3
59 5 7
59 6 7
59 7 1
59 8 7
59 9 3
59 10 7
59 11 4
59 12 1
59 13 6
59 14 7
59 15 8
59 16 7
59 17 5
59 18 1
59 19 7
59 20 4
59 21 6
59 22 5
59 23 8
59 24 4
59 25 6
59 26 4
59 27 5
59 28 6
59 29 8
59 30 8
59 31 1
59 32 8
59 33 1
59 34 8
59 35 1
59 36 4
59 37 2
59 38 4
59 39 1
59 40 5
59 41 4
59 42 3
59 43 5
59 44 3
59 45 1
59 46 8
59 47 5
59 48 4
59 49 1
59 50 4
59 51 4
59 52 5
59 53 6
59 54 2
59 55 4
59 56 2
59 57 7
59 58 6
60 0 7
60 1 8
60 2 8
60 3 2
60 4 3
60 5 8
60 6 7
60 7 7
60 8 4
60 9 3
60 10 5
60 11 5
60 12 3
60 13 4
60 14 6
60 15 6
60 16 2
60 17 2
60 18 8
60 19 1
60 20 1
60 21 5
60 22 2
60 23 4
60 24 5
60 25 4
60 26 6
60 27 8
60 28 5
60 29 3
60 30 7
60 31 5
60 32 2
60 33 8
60 34 2
60 35 2
60 36 5
60 37 2
60 38 1
60 39 5
60 40 8
60 41 2
60 42 3
60 43 1
60 44 6
60 45 1
60 46 2
60 47 8
60 48 5
60 49 6
60 50 2
60 51 6
60 52 8
60 53 4
60 54 7
60 55 2
60 56 4
60 57 2
60 58 1
60 59 4
61 0 5
61 1 4
61 2 8
61 3 6
61 4 7
61 5 4
61 6 5
61 7 8
61 8 6
61 9 1
61 10 4
61 11 4
61 12 6
61 13 6
61 14 8
61 15 2
61 16 3
61 17 7
61 18 5
61 19 4
61 20 5
61 21 3
61 22 7
61 23 7
61 24 5
61 25 8
61 26 7
61 27 1
61 28 3
61 29 3
61 30 2
61 31 3
61 32 6
61 33 1
61 34 3
61 35 5
61 36 1
61 37 7
61 38 5
61 39 5
61 40 5
61 41 7
61 42 8
61 43 6
61 44 3
61 45 4
61 46 7
61 47 8
61 48 5
61 49 5
61 50 3
61 51 2
61 52 5
61 53 4
61 54 7
61 55 7
61 56 7
61 57 3
61 58 8
61 59 3
61 60 1
62 0 4
62 1 1
62 2 8
62 3 5
62 4 8
62 5 1
62 6 5
62 7 5
62 8 2
62 9 7
62 10 4
62 11 8
62 12 2
62 13 5
62 14 3
62 15 5
62 16 8
62 17 7
62 18 5
62 19 2
62 20 1
62 21 7
62 22 1
62 23 7
62 24 3
62 25 8
62 26 3
62 27 7
62 28 1
62 29 8
62 30 5
62 31 1
62 32 7
62 33 8
62 34 8
62 35 8
62 36 4
62 37 6
62 38 7
62 39 6
62 40 3
62 41 3
62 42 2
62 43 7
62 44 1
62 45 7
62 46 6
62 47 8
62 48 7
62 49 7
62 50 2
62 51 3
62 52 7
62 53 5
62 54 8
62 55 5
62 56 4
62 57 1
62 58 3
62 59 8
62 60 5
62 61 2
63 0 8
63 1 8
63 2 5
63 3 3
63 4 8
63 5 6
63 6 1
63 7 2
63 8 2
63 9 5
63 10 4
63 11 3
63 12 7
63 13 4
63 14 4
63 15 8
63 16 8
63 17 3
63 18 7
63 19 6
63 20 4
63 21 3
63 22 2
63 23 4
63 24 6
63 25 6
63 26 4
63 27 3
63 28 3
63 29 5
63 30 3
63 31 8
63 32 2
63 33 6
63 34 3
63 35 7
63 36 2
63 37 7
63 38 6
63 39 1
63 40 4
63 41 8
63 42 6
63 43 4
63 44 3
63 45 6
63 46 4
63 47 6
63 48 5
63 49 6
63 50 2
63 51 6
63 52 1
63 53 1
63 54 7
63 55 3
63 56 8
63 57 7
63 58 5
63 59 1
63 60 6
63 61 5
63 62 3
64 0 4
64 1 5
64 2 2
64 3 8
64 4 8
64 5 1
64 6 5
64 7 4
64 8 4
64 9 3
64 10 1
64 11 3
64 12 3
64 13 2
64 14 7
64 15 7
64 16 7
64 17 2
64 18 5
64 19 8
64 20 8
64 21 7
64 22 4
64 23 7
64 24 1
64 25 2
64 26 6
64 27 6
64 28 2
64 29 5
64 30 1
64 31 8
64 32 5
64 33 4
64 34 6
64 35 2
64 36 5
64 37 2
64 38 3
64 39 7
64 40 5
64 41 1
64 42 1
64 43 7
64 44 3
64 45 1
64 46 3
64 47 7
64 48 3
64 49 2
64 50 1
64 51 2
64 52 6
64 53 8
64 54 8
64 55 1
64 56 1
64 57 6
64 58 6
64 59 3
64 60 5
64 61 4
64 62 1
64 63 2
65 0 8
65 1 3
65 2 8
65 3 3
65 4 5
65 5 3
65 6 4
65 7 4
65 8 4
65 9 6
65 10 6
65 11 6
65 12 6
65 13 6
65 14 2
65 15 2
65 16 8
65 17 3
65 18 4
65 19 7
65 20 4
65 21 7
65 22 1
65 23 8
65 24 7
65 25 7
65 26 7
65 27 7
65 28 4
65 29 4
65 30 1
65 31 8
65 32 3
65 33 7
65 34 3
65 35 1
65 36 8
65 37 8
65 38 3
65 39 3
65 40 5
65 41 3
65 42 7
65 43 3
65 44 1
65 45 1
65 46 6
65 47 8
65 48 3
65 49 4
65 50 3
65 51 8
65 52 7
65 53 5
65 54 7
65 55 1
65 56 4
65 57 6
65 58 8
65 59 7
65 60 3
65 61 6
65 62 7
65 63 1
65 64 6
66 0 8
66 1 8
66 2 4
66 3 3
66 4 2
66 5 8
66 6 8
66 7 5
66 8 3
66 9 4
66 10 6
66 11 1
66 12 5
66 13 4
66 14 7
66 15 2
66 16 7
66 17 6
66 18 3
66 19 8
66 20 7
66 21 3
66 22 6
66 23 5
66 24 1
66 25 8
66 26 8
66 27 7
66 28 4
66 29 7
66 30 4
66 31 4
66 32 2
66 33 8
66 34 7
66 35 3
66 36 6
66 37 7
66 38 3
66 39 7
66 40 3
66 41 1
66 42 2
66 43 2
66 44 3
66 45 4
66 46 8
66 47 4
66 48 6
66 49 8
66 50 6
66 51 7
66 52 5
66 53 7
66 54 7
66 55 8
66 56 6
66 57 8
66 58 4
66 59 8
66 60 6
66 61 2
66 62 4
66 63 2
66 64 8
66 65 2
67 0 7
67 1 5
67 2 3
67 3 6
67 4 4
67 5 1
67 6 3
67 7 5
67 8 6
67 9 2
67 10 8
67 11 1
67 12 6
67 13 2
67 14 5
67 15 5
67 16 7
67 17 7
67 18 2
67 19 3
67 20 4
67 21 2
67 22 4
67 23 3
67 24 8
67 25 7
67 26 2
67 27 1
67 28 5
67 29 5
67 30 1
67 31 3
67 32 6
67 33 5
67 34 1
67 35 7
67 36 2
67 37 2
67 38 1
67 39 5
67 40 7
67 41 7
67 42 4
67 43 7
67 44 1
67 45 8
67 46 4
67 47 8
67 48 6
67 49 7
67 50 7
67 51 3
67 52 4
67 53 1
67 54 1
67 55 8
67 56 8
67 57 6
67 58 8
67 59 5
67 60 1
67 61 7
67 62 8
67 63 7
67 64 5
67 65 3
67 66 1
68 0 7
68 1 6
68 2 8
68 3 3
68 4 3
68 5 5
68 6 7
68 7 2
68 8 6
68 9 6
68 10 4
68 11 8
68 12 1
68 13 2
68 14 2
68 15 5
68 16 1
68 17 1
68 18 6
68 19 2
68 20 2
68 21 3
68 22 1
68 23 7
68 24 8
68 25 1
68 26 3
68 27 5
68 28 2
68 29 1
68 30 1
68 31 8
68 32 6
68 33 3
68 34 1
68 35 2
68 36 2
68 37 5
68 38 7
68 39 5
68 40 1
68 41 8
68 42 4
68 43 2
68 44 4
68 45 2
68 46 1
68 47 4
68 48 1
68 49 7
68 50 5
68 51 4
68 52 6
68 53 6
68 54 6
68 55 1
68 56 1
68 57 3
68 58 3
68 59 6
68 60 3
68 61 4
68 62 7
68 63 1
68 64 7
68 65 6
68 66 7
68 67 5
69 0 5
69 1 6
69 2 1
69 3 5
69 4 2
69 5 1
69 6 3
69 7 3
69 8 2
69 9 8
69 10 7
69 11 6
69 12 4
69 13 7
69 14 8
69 15 6
69 16 3
69 17 2
69 18 4
69 19 5
69 20 2
69 21 8
69 22 5
69 23 3
69 24 1
69 25 6
69 26 3
69 27 2
69 28 7
69 29 2
69 30 7
69 31 1
69 32 2
69 33 7
69 34 5
69 35 4
69 36 8
69 37 8
69 38 1
69 39 6
69 40 3
69 41 4
69 42 2
69 43 6
69 44 2
69 45 5
69 46 7
69 47 1
69 48 6
69 49 7
69 50 1
69 51 4
69 52 2
69 53 8
69 54 3
69 55 2
69 56 4
69 57 3
69 58 1
69 59 2
69 60 8
69 61 1
69 62 3
69 63 2
69 64 2
69 65 5
69 66 6
69 67 3
69 68 5
